p edge 14 30
e 1 3
e 1 4
e 1 5
e 1 8
e 1 9
e 2 3
e 2 6
e 2 12
e 3 6
e 3 8
e 3 12
e 4 5
e 4 8
e 4 9
e 4 13
e 4 14
e 5 8
e 5 9
e 5 11
e 5 13
e 5 14
e 6 12
e 7 10
e 9 11
e 9 13
e 9 14
e 10 11
e 11 13
e 11 14
e 13 14
